
Gurobi 10.0.1 (win64) logging started Sat Sep  9 14:28:27 2023

Set parameter LogFile to value "results-heuristic-start//log/URT_02_deadline.log"
Gurobi Optimizer version 10.0.1 build v10.0.1rc0 (win64)

CPU model: AMD Ryzen 7 3700X 8-Core Processor, instruction set [SSE2|AVX|AVX2]
Thread count: 8 physical cores, 16 logical processors, using up to 16 threads

Optimize a model with 30 rows, 27 columns and 81 nonzeros
Model fingerprint: 0x5593f8f1
Model has 1 quadratic constraint
Variable types: 4 continuous, 23 integer (22 binary)
Coefficient statistics:
  Matrix range     [1e+00, 1e+06]
  QMatrix range    [1e+00, 1e+00]
  QLMatrix range   [1e+00, 4e+00]
  Objective range  [1e+00, 1e+00]
  Bounds range     [1e+00, 1e+00]
  RHS range        [1e+00, 3e+06]

User MIP start produced solution with objective 358 (0.00s)
Loaded user MIP start with objective 358

Presolve removed 22 rows and 20 columns
Presolve time: 0.00s
Presolved: 8 rows, 7 columns, 21 nonzeros
Variable types: 4 continuous, 3 integer (2 binary)
Found heuristic solution: objective 357.0000000

Root relaxation: objective 1.100000e+01, 2 iterations, 0.00 seconds (0.00 work units)

    Nodes    |    Current Node    |     Objective Bounds      |     Work
 Expl Unexpl |  Obj  Depth IntInf | Incumbent    BestBd   Gap | It/Node Time

     0     0   11.00000    0    2  357.00000   11.00000  96.9%     -    0s
H    0     0                      28.0000000   28.00000  0.00%     -    0s
     0     0   28.00000    0    2   28.00000   28.00000  0.00%     -    0s

Explored 1 nodes (2 simplex iterations) in 0.02 seconds (0.00 work units)
Thread count was 16 (of 16 available processors)

Solution count 3: 28 357 358 

Optimal solution found (tolerance 1.00e-04)
Best objective 2.800000000000e+01, best bound 2.800000000000e+01, gap 0.0000%
Warning: constraint name "precedence between 0,1 to 0,0 if x_[j,l,h,z,i]=1" has a space
Warning: constraint name "precedence between 0,1 to 0,0 if x_[j,l,h,z,i]=1" has a space
Warning: default constraint names used to write mps file
